27
2 10 19 
2 55 44 
1 28 
3 11 39 6 
1 20 
3 43 38 14 
2 7 45 
2 58 49 
3 16 24 12 
3 56 1 29 
3 21 59 4 
3 22 26 47 
1 48 
2 33 46 
1 3 
3 51 54 8 
3 9 60 17 
3 36 57 27 
3 53 50 32 
2 2 40 
3 34 41 42 
2 13 37 
3 35 25 30 
1 52 
1 18 
3 15 31 5 
1 23 
